NAME : C1_2_1
TYPE : VRPSPD
DIMENSION : 201
VEHICLES : 28
CAPACITY : 200
DISTANCE : 999999
SCALE : 1000
EDGE_WEIGHT_TYPE : EXACT_2D
NODE_COORD_SECTION
1 70 70
2 33 78
3 59 52
4 10 137
5 4 28
6 25 26
7 86 37
8 1 109
9 6 135
10 32 79
11 24 26
12 86 36
13 95 35
14 63 50
15 100 106
16 99 112
17 36 135
18 57 59
19 8 124
20 85 106
21 103 69
22 109 131
23 43 140
24 115 134
25 98 70
26 112 67
27 102 104
28 93 75
29 90 104
30 127 108
31 84 99
32 113 69
33 129 9
34 18 38
35 30 27
36 25 80
37 17 37
38 32 106
39 43 135
40 61 59
41 104 106
42 109 71
43 121 110
44 61 48
45 74 99
46 89 73
47 21 25
48 99 28
49 101 96
50 9 114
51 121 112
52 137 6
53 118 131
54 34 82
55 4 125
56 26 105
57 35 123
58 21 48
59 21 115
60 99 108
61 1 34
62 94 70
63 74 93
64 32 128
65 94 73
66 135 3
67 97 28
68 59 56
69 80 97
70 134 31
71 103 34
72 30 79
73 4 30
74 87 39
75 90 101
76 119 136
77 78 92
78 110 66
79 62 58
80 127 112
81 113 71
82 34 104
83 2 28
84 17 43
85 1 24
86 112 71
87 135 0
88 125 108
89 8 138
90 103 111
91 57 53
92 98 31
93 116 132
94 28 99
95 137 3
96 29 28
97 94 105
98 92 107
99 10 134
100 34 79
101 94 72
102 35 76
103 76 99
104 127 28
105 8 119
106 102 110
107 24 24
108 64 61
109 22 38
110 88 72
111 107 63
112 33 131
113 123 112
114 67 55
115 39 128
116 136 0
117 93 36
118 7 115
119 21 44
120 28 74
121 86 102
122 19 37
123 84 36
124 118 108
125 132 24
126 6 25
127 28 78
128 2 132
129 22 22
130 88 35
131 94 104
132 74 96
133 0 117
134 99 96
135 119 114
136 28 107
137 133 12
138 35 102
139 36 105
140 84 39
141 34 138
142 136 29
143 33 133
144 16 39
145 32 77
146 122 131
147 77 100
148 96 26
149 127 29
150 91 95
151 42 136
152 36 132
153 103 106
154 107 105
155 96 74
156 63 57
157 122 113
158 14 131
159 30 31
160 40 132
161 99 26
162 10 118
163 102 60
164 120 136
165 97 29
166 19 39
167 27 77
168 30 24
169 126 112
170 105 110
171 118 114
172 135 6
173 111 66
174 95 77
175 139 10
176 61 54
177 16 38
178 16 138
179 91 78
180 91 71
181 0 27
182 6 113
183 119 139
184 35 99
185 31 112
186 5 119
187 3 135
188 30 136
189 20 39
190 131 11
191 28 33
192 4 23
193 87 108
194 21 26
195 121 134
196 119 130
197 91 108
198 130 27
199 101 107
200 34 108
201 131 31
PICKUP_AND_DELIVERY_SECTION
1 0 0 10000000 0 0 0
2 0 0 10000000 0 30 20
3 0 0 10000000 0 10 20
4 0 0 10000000 0 30 30
5 0 0 10000000 0 10 10
6 0 0 10000000 0 20 20
7 0 0 10000000 0 40 10
8 0 0 10000000 0 20 10
9 0 0 10000000 0 10 40
10 0 0 10000000 0 30 20
11 0 0 10000000 0 40 20
12 0 0 10000000 0 40 20
13 0 0 10000000 0 30 10
14 0 0 10000000 0 10 10
15 0 0 10000000 0 20 10
16 0 0 10000000 0 20 20
17 0 0 10000000 0 30 10
18 0 0 10000000 0 30 10
19 0 0 10000000 0 40 10
20 0 0 10000000 0 10 20
21 0 0 10000000 0 20 30
22 0 0 10000000 0 40 20
23 0 0 10000000 0 10 10
24 0 0 10000000 0 20 30
25 0 0 10000000 0 40 10
26 0 0 10000000 0 10 10
27 0 0 10000000 0 40 20
28 0 0 10000000 0 30 30
29 0 0 10000000 0 10 20
30 0 0 10000000 0 30 10
31 0 0 10000000 0 40 20
32 0 0 10000000 0 20 20
33 0 0 10000000 0 30 10
34 0 0 10000000 0 20 30
35 0 0 10000000 0 40 10
36 0 0 10000000 0 30 20
37 0 0 10000000 0 40 30
38 0 0 10000000 0 20 10
39 0 0 10000000 0 20 10
40 0 0 10000000 0 40 20
41 0 0 10000000 0 30 20
42 0 0 10000000 0 30 20
43 0 0 10000000 0 10 30
44 0 0 10000000 0 40 20
45 0 0 10000000 0 40 20
46 0 0 10000000 0 10 10
47 0 0 10000000 0 40 20
48 0 0 10000000 0 20 30
49 0 0 10000000 0 20 10
50 0 0 10000000 0 10 20
51 0 0 10000000 0 20 20
52 0 0 10000000 0 10 10
53 0 0 10000000 0 30 20
54 0 0 10000000 0 30 10
55 0 0 10000000 0 20 30
56 0 0 10000000 0 10 40
57 0 0 10000000 0 20 20
58 0 0 10000000 0 20 10
59 0 0 10000000 0 30 10
60 0 0 10000000 0 40 20
61 0 0 10000000 0 20 20
62 0 0 10000000 0 10 20
63 0 0 10000000 0 40 20
64 0 0 10000000 0 20 20
65 0 0 10000000 0 10 10
66 0 0 10000000 0 30 20
67 0 0 10000000 0 20 20
68 0 0 10000000 0 30 20
69 0 0 10000000 0 40 10
70 0 0 10000000 0 20 20
71 0 0 10000000 0 20 30
72 0 0 10000000 0 20 20
73 0 0 10000000 0 30 40
74 0 0 10000000 0 20 20
75 0 0 10000000 0 40 10
76 0 0 10000000 0 30 30
77 0 0 10000000 0 40 30
78 0 0 10000000 0 30 10
79 0 0 10000000 0 30 20
80 0 0 10000000 0 40 20
81 0 0 10000000 0 10 10
82 0 0 10000000 0 40 10
83 0 0 10000000 0 40 10
84 0 0 10000000 0 20 10
85 0 0 10000000 0 30 10
86 0 0 10000000 0 20 20
87 0 0 10000000 0 30 10
88 0 0 10000000 0 30 20
89 0 0 10000000 0 20 30
90 0 0 10000000 0 30 20
91 0 0 10000000 0 40 10
92 0 0 10000000 0 40 20
93 0 0 10000000 0 30 10
94 0 0 10000000 0 10 10
95 0 0 10000000 0 10 20
96 0 0 10000000 0 20 10
97 0 0 10000000 0 20 10
98 0 0 10000000 0 10 30
99 0 0 10000000 0 20 10
100 0 0 10000000 0 30 10
101 0 0 10000000 0 30 20
102 0 0 10000000 0 30 10
103 0 0 10000000 0 40 20
104 0 0 10000000 0 20 30
105 0 0 10000000 0 20 20
106 0 0 10000000 0 30 10
107 0 0 10000000 0 30 10
108 0 0 10000000 0 10 20
109 0 0 10000000 0 10 20
110 0 0 10000000 0 10 30
111 0 0 10000000 0 40 30
112 0 0 10000000 0 10 30
113 0 0 10000000 0 20 20
114 0 0 10000000 0 10 10
115 0 0 10000000 0 40 10
116 0 0 10000000 0 30 30
117 0 0 10000000 0 40 20
118 0 0 10000000 0 10 10
119 0 0 10000000 0 20 20
120 0 0 10000000 0 40 20
121 0 0 10000000 0 30 10
122 0 0 10000000 0 40 20
123 0 0 10000000 0 40 10
124 0 0 10000000 0 10 10
125 0 0 10000000 0 40 10
126 0 0 10000000 0 20 10
127 0 0 10000000 0 10 10
128 0 0 10000000 0 40 10
129 0 0 10000000 0 30 10
130 0 0 10000000 0 10 20
131 0 0 10000000 0 20 10
132 0 0 10000000 0 30 30
133 0 0 10000000 0 20 30
134 0 0 10000000 0 10 10
135 0 0 10000000 0 40 20
136 0 0 10000000 0 40 20
137 0 0 10000000 0 10 10
138 0 0 10000000 0 20 10
139 0 0 10000000 0 30 20
140 0 0 10000000 0 30 20
141 0 0 10000000 0 30 20
142 0 0 10000000 0 40 10
143 0 0 10000000 0 20 20
144 0 0 10000000 0 40 20
145 0 0 10000000 0 40 20
146 0 0 10000000 0 20 20
147 0 0 10000000 0 40 20
148 0 0 10000000 0 30 10
149 0 0 10000000 0 30 20
150 0 0 10000000 0 40 20
151 0 0 10000000 0 20 10
152 0 0 10000000 0 40 10
153 0 0 10000000 0 40 30
154 0 0 10000000 0 10 10
155 0 0 10000000 0 30 10
156 0 0 10000000 0 40 10
157 0 0 10000000 0 30 20
158 0 0 10000000 0 20 10
159 0 0 10000000 0 20 20
160 0 0 10000000 0 40 20
161 0 0 10000000 0 10 40
162 0 0 10000000 0 40 10
163 0 0 10000000 0 10 30
164 0 0 10000000 0 30 10
165 0 0 10000000 0 20 30
166 0 0 10000000 0 40 10
167 0 0 10000000 0 20 10
168 0 0 10000000 0 20 20
169 0 0 10000000 0 40 10
170 0 0 10000000 0 20 20
171 0 0 10000000 0 30 10
172 0 0 10000000 0 40 30
173 0 0 10000000 0 20 20
174 0 0 10000000 0 30 10
175 0 0 10000000 0 40 30
176 0 0 10000000 0 30 10
177 0 0 10000000 0 40 20
178 0 0 10000000 0 10 10
179 0 0 10000000 0 40 10
180 0 0 10000000 0 40 20
181 0 0 10000000 0 40 30
182 0 0 10000000 0 40 20
183 0 0 10000000 0 30 20
184 0 0 10000000 0 40 20
185 0 0 10000000 0 40 20
186 0 0 10000000 0 20 20
187 0 0 10000000 0 30 20
188 0 0 10000000 0 40 10
189 0 0 10000000 0 10 10
190 0 0 10000000 0 10 10
191 0 0 10000000 0 40 20
192 0 0 10000000 0 30 10
193 0 0 10000000 0 10 20
194 0 0 10000000 0 40 20
195 0 0 10000000 0 40 20
196 0 0 10000000 0 30 20
197 0 0 10000000 0 20 10
198 0 0 10000000 0 40 30
199 0 0 10000000 0 20 10
200 0 0 10000000 0 20 10
201 0 0 10000000 0 40 20
DEPOT_SECTION
1 
-1
EOF
